open_stacks/Miller19.sol
objective = 13;
s = [1, 2, 3, 4, 21, 5, 22, 6, 23, 25, 7, 8, 24, 27, 9, 10, 26, 11, 28, 12, 29, 13, 30, 14, 31, 15, 32, 16, 33, 35, 37, 39, 17, 18, 19, 20, 34, 36, 38, 40];
